NAME : kleinezf\2a3c4b.knd
COMMENT : 
TYPE : CVRP
DIMENSION : 201
EDGE_WEIGHT_TYPE : EUC_2D
CAPACITY : 10100
CAPACITY_VOL : 50
NODE_COORD_TYPE : TWOD_COORDS
NODE_COORD_SECTION
1 23452 56766
2 24683 55828
3 24727 55912
4 24988 56795
5 24989 56615
6 24389 55556
7 23721 55258
8 23611 58269
9 24394 55569
10 23849 55299
11 23843 55285
12 24297 57999
13 24614 55814
14 24641 55866
15 23881 55358
16 23973 55384
17 24598 57690
18 24327 55598
19 23115 55335
20 23192 55340
21 24883 57025
22 23885 55384
23 24869 56524
24 23400 55333
25 23885 55384
26 23975 55432
27 23920 55404
28 24575 55887
29 23871 55405
30 24595 55938
31 22962 55437
32 23027 55413
33 24661 57475
34 24781 56321
35 24792 56341
36 23934 55451
37 24050 58038
38 24287 57879
39 24287 57879
40 24115 55564
41 24115 55564
42 23920 55471
43 24260 55668
44 24079 55558
45 23286 55411
46 23972 55494
47 23802 55435
48 23802 55435
49 23802 55435
50 23425 55414
51 23019 55479
52 23452 55413
53 23019 55479
54 24727 57241
55 23515 55422
56 23515 55422
57 23191 55456
58 23814 55481
59 23191 55456
60 24324 55768
61 23970 55524
62 23970 55524
63 23951 55541
64 23951 55541
65 24003 55566
66 23315 55470
67 24069 55623
68 24737 56600
69 24115 55678
70 23855 55552
71 24679 56367
72 24227 55762
73 24427 55950
74 24017 55639
75 23148 55535
76 23517 55525
77 23886 55604
78 24013 55662
79 23237 55540
80 24258 55842
81 24025 55693
82 24179 55785
83 24509 56143
84 24343 57597
85 23101 55593
86 23101 55593
87 24212 55819
88 24191 55797
89 24243 55853
90 23117 55619
91 23117 55619
92 23532 55595
93 24179 55832
94 23891 55671
95 23787 55642
96 23392 55623
97 23716 55654
98 23558 55634
99 24190 55912
100 24255 55974
101 24190 55912
102 24190 55912
103 23901 55730
104 23841 55718
105 24293 56051
106 23584 55683
107 23652 57853
108 24172 55945
109 24195 55977
110 24075 57615
111 23988 55860
112 23689 55730
113 24270 56091
114 24501 56884
115 23644 55729
116 23266 55731
117 24176 56010
118 24113 55965
119 24076 55941
120 24014 55917
121 24069 55942
122 24176 56044
123 24269 56175
124 24193 56065
125 24015 55958
126 24090 56037
127 23984 55970
128 24166 56122
129 24225 56172
130 24229 56252
131 23600 55834
132 24229 56252
133 24229 56252
134 23255 55840
135 23600 55834
136 23988 57533
137 23145 55877
138 23988 57533
139 24040 56043
140 24163 56158
141 24040 56043
142 23754 55878
143 23794 55901
144 23794 55901
145 23622 55856
146 24149 56187
147 24169 56220
148 23519 55875
149 24204 57221
150 24180 57250
151 24180 57250
152 24138 56215
153 24180 57250
154 24180 57250
155 23987 56131
156 23791 56011
157 23812 57509
158 24214 57048
159 23340 55974
160 23780 56048
161 24073 56284
162 24073 56284
163 23270 56012
164 24163 56989
165 24146 57030
166 24146 57030
167 24089 56450
168 23359 57454
169 23882 57294
170 23789 56258
171 22972 56406
172 23042 57212
173 23062 57227
174 23062 57227
175 23341 56177
176 23966 56985
177 23963 57004
178 23240 57257
179 23685 57245
180 23685 57245
181 23977 56841
182 23305 56263
183 23432 56245
184 23768 57110
185 23083 56505
186 23101 57028
187 23381 56372
188 23381 56372
189 23405 57136
190 23815 56828
191 23485 57114
192 23681 56996
193 23681 56546
194 23681 56546
195 23155 56680
196 23447 57056
197 23187 56649
198 23666 56945
199 23709 56697
200 23527 56532
201 23611 56631
DEMAND_SECTION
1 0 0
2 20 0
3 40 0
4 10 0
5 90 0
6 10 0
7 50 0
8 20 0
9 40 0
10 80 0
11 60 0
12 50 0
13 20 0
14 20 0
15 30 0
16 90 0
17 60 0
18 90 0
19 10 0
20 10 0
21 40 0
22 30 0
23 70 0
24 40 0
25 70 0
26 20 0
27 70 0
28 70 0
29 40 0
30 10 0
31 20 0
32 50 0
33 50 0
34 90 0
35 60 0
36 20 0
37 50 0
38 30 0
39 10 0
40 30 0
41 80 0
42 90 0
43 30 0
44 50 0
45 80 0
46 40 0
47 40 0
48 20 0
49 60 0
50 20 0
51 90 0
52 60 0
53 50 0
54 10 0
55 50 0
56 30 0
57 20 0
58 80 0
59 90 0
60 60 0
61 10 0
62 90 0
63 50 0
64 30 0
65 80 0
66 80 0
67 70 0
68 20 0
69 90 0
70 20 0
71 90 0
72 30 0
73 80 0
74 90 0
75 40 0
76 30 0
77 30 0
78 70 0
79 10 0
80 90 0
81 30 0
82 80 0
83 40 0
84 10 0
85 30 0
86 70 0
87 90 0
88 90 0
89 10 0
90 60 0
91 50 0
92 80 0
93 90 0
94 40 0
95 20 0
96 30 0
97 30 0
98 10 0
99 30 0
100 60 0
101 30 0
102 30 0
103 10 0
104 90 0
105 20 0
106 40 0
107 10 0
108 40 0
109 40 0
110 80 0
111 40 0
112 50 0
113 40 0
114 80 0
115 40 0
116 50 0
117 10 0
118 40 0
119 70 0
120 60 0
121 50 0
122 30 0
123 80 0
124 90 0
125 20 0
126 30 0
127 90 0
128 20 0
129 70 0
130 90 0
131 70 0
132 90 0
133 80 0
134 50 0
135 80 0
136 60 0
137 60 0
138 10 0
139 30 0
140 50 0
141 30 0
142 30 0
143 60 0
144 80 0
145 60 0
146 80 0
147 60 0
148 90 0
149 20 0
150 70 0
151 40 0
152 40 0
153 40 0
154 70 0
155 40 0
156 60 0
157 50 0
158 10 0
159 80 0
160 40 0
161 80 0
162 90 0
163 90 0
164 90 0
165 50 0
166 20 0
167 40 0
168 10 0
169 50 0
170 20 0
171 20 0
172 50 0
173 80 0
174 20 0
175 30 0
176 40 0
177 50 0
178 90 0
179 60 0
180 40 0
181 50 0
182 20 0
183 60 0
184 20 0
185 60 0
186 70 0
187 60 0
188 30 0
189 40 0
190 90 0
191 80 0
192 30 0
193 10 0
194 10 0
195 70 0
196 30 0
197 90 0
198 90 0
199 80 0
200 40 0
201 50 0
PICKUP_SECTION
1 0 0
2 90 0
3 0 0
4 10 0
5 40 0
6 0 0
7 0 0
8 0 0
9 50 0
10 0 0
11 0 0
12 50 0
13 0 0
14 0 0
15 50 0
16 70 0
17 70 0
18 0 0
19 0 0
20 0 0
21 0 0
22 0 0
23 0 0
24 0 0
25 80 0
26 30 0
27 0 0
28 60 0
29 10 0
30 70 0
31 20 0
32 0 0
33 0 0
34 0 0
35 0 0
36 0 0
37 0 0
38 30 0
39 0 0
40 0 0
41 0 0
42 50 0
43 0 0
44 0 0
45 0 0
46 0 0
47 40 0
48 90 0
49 40 0
50 30 0
51 20 0
52 70 0
53 40 0
54 0 0
55 0 0
56 0 0
57 0 0
58 60 0
59 60 0
60 0 0
61 10 0
62 10 0
63 70 0
64 0 0
65 0 0
66 0 0
67 40 0
68 10 0
69 0 0
70 20 0
71 70 0
72 0 0
73 20 0
74 0 0
75 0 0
76 0 0
77 30 0
78 70 0
79 0 0
80 0 0
81 40 0
82 50 0
83 0 0
84 0 0
85 30 0
86 0 0
87 0 0
88 20 0
89 0 0
90 80 0
91 0 0
92 0 0
93 70 0
94 0 0
95 0 0
96 30 0
97 80 0
98 0 0
99 40 0
100 30 0
101 90 0
102 50 0
103 10 0
104 0 0
105 0 0
106 20 0
107 30 0
108 50 0
109 0 0
110 30 0
111 0 0
112 0 0
113 10 0
114 70 0
115 0 0
116 50 0
117 30 0
118 30 0
119 0 0
120 0 0
121 80 0
122 70 0
123 80 0
124 0 0
125 0 0
126 50 0
127 0 0
128 0 0
129 40 0
130 50 0
131 0 0
132 70 0
133 30 0
134 0 0
135 30 0
136 10 0
137 10 0
138 50 0
139 0 0
140 60 0
141 20 0
142 0 0
143 0 0
144 20 0
145 0 0
146 60 0
147 30 0
148 0 0
149 30 0
150 0 0
151 0 0
152 60 0
153 50 0
154 60 0
155 20 0
156 0 0
157 40 0
158 0 0
159 0 0
160 50 0
161 0 0
162 0 0
163 0 0
164 0 0
165 60 0
166 0 0
167 0 0
168 80 0
169 40 0
170 90 0
171 40 0
172 0 0
173 80 0
174 60 0
175 0 0
176 0 0
177 20 0
178 70 0
179 0 0
180 0 0
181 80 0
182 0 0
183 90 0
184 0 0
185 0 0
186 30 0
187 60 0
188 0 0
189 0 0
190 0 0
191 0 0
192 50 0
193 80 0
194 0 0
195 50 0
196 40 0
197 60 0
198 0 0
199 0 0
200 10 0
201 10 0
TIME_WINDOW_SECTION
2  7:00 18:00
3  7:00 18:00
4  7:00 18:00
5  7:00 18:00
6  7:00 18:00
7  7:00 18:00
8  7:00 18:00
9  7:00 18:00
10  7:00 18:00
11  7:00 18:00
12  7:00 18:00
13  7:00 18:00
14  7:00 18:00
15  7:00 18:00
16  7:00 18:00
17  7:00 18:00
18  7:00 18:00
19  7:00 18:00
20  7:00 18:00
21  7:00 18:00
22  7:00 18:00
23  7:00 18:00
24  7:00 18:00
25  7:00 18:00
26  7:00 18:00
27  7:00 18:00
28  7:00 18:00
29  7:00 18:00
30  7:00 18:00
31  7:00 18:00
32  7:00 18:00
33  7:00 18:00
34  7:00 18:00
35  7:00 18:00
36  7:00 18:00
37  7:00 18:00
38  7:00 18:00
39  7:00 18:00
40  7:00 18:00
41  7:00 18:00
42  7:00 18:00
43  7:00 18:00
44  7:00 18:00
45  7:00 18:00
46  7:00 18:00
47  7:00 18:00
48  7:00 18:00
49  7:00 18:00
50  7:00 18:00
51  7:00 18:00
52  7:00 18:00
53  7:00 18:00
54  7:00 18:00
55  7:00 18:00
56  7:00 18:00
57  7:00 18:00
58  7:00 18:00
59  7:00 18:00
60  7:00 18:00
61  7:00 18:00
62  7:00 18:00
63  7:00 18:00
64  7:00 18:00
65  7:00 18:00
66  7:00 18:00
67  7:00 18:00
68  7:00 18:00
69  7:00 18:00
70  7:00 18:00
71  7:00 18:00
72  7:00 18:00
73  7:00 18:00
74  7:00 18:00
75  7:00 18:00
76  7:00 18:00
77  7:00 18:00
78  7:00 18:00
79  7:00 18:00
80  7:00 18:00
81  7:00 18:00
82  7:00 18:00
83  7:00 18:00
84  7:00 18:00
85  7:00 18:00
86  7:00 18:00
87  7:00 18:00
88  7:00 18:00
89  7:00 18:00
90  7:00 18:00
91  7:00 18:00
92  7:00 18:00
93  7:00 18:00
94  7:00 18:00
95  7:00 18:00
96  7:00 18:00
97  7:00 18:00
98  7:00 18:00
99  7:00 18:00
100  7:00 18:00
101  7:00 18:00
102  7:00 18:00
103  7:00 18:00
104  7:00 18:00
105  7:00 18:00
106  7:00 18:00
107  7:00 18:00
108  7:00 18:00
109  7:00 18:00
110  7:00 18:00
111  7:00 18:00
112  7:00 18:00
113  7:00 18:00
114  7:00 18:00
115  7:00 18:00
116  7:00 18:00
117  7:00 18:00
118  7:00 18:00
119  7:00 18:00
120  7:00 18:00
121  7:00 18:00
122  7:00 18:00
123  7:00 18:00
124  7:00 18:00
125  7:00 18:00
126  7:00 18:00
127  7:00 18:00
128  7:00 18:00
129  7:00 18:00
130  7:00 18:00
131  7:00 18:00
132  7:00 18:00
133  7:00 18:00
134  7:00 18:00
135  7:00 18:00
136  7:00 18:00
137  7:00 18:00
138  7:00 18:00
139  7:00 18:00
140  7:00 18:00
141  7:00 18:00
142  7:00 18:00
143  7:00 18:00
144  7:00 18:00
145  7:00 18:00
146  7:00 18:00
147  7:00 18:00
148  7:00 18:00
149  7:00 18:00
150  7:00 18:00
151  7:00 18:00
152  7:00 18:00
153  7:00 18:00
154  7:00 18:00
155  7:00 18:00
156  7:00 18:00
157  7:00 18:00
158  7:00 18:00
159  7:00 18:00
160  7:00 18:00
161  7:00 18:00
162  7:00 18:00
163  7:00 18:00
164  7:00 18:00
165  7:00 18:00
166  7:00 18:00
167  7:00 18:00
168  7:00 18:00
169  7:00 18:00
170  7:00 18:00
171  7:00 18:00
172  7:00 18:00
173  7:00 18:00
174  7:00 18:00
175  7:00 18:00
176  7:00 18:00
177  7:00 18:00
178  7:00 18:00
179  7:00 18:00
180  7:00 18:00
181  7:00 18:00
182  7:00 18:00
183  7:00 18:00
184  7:00 18:00
185  7:00 18:00
186  7:00 18:00
187  7:00 18:00
188  7:00 18:00
189  7:00 18:00
190  7:00 18:00
191  7:00 18:00
192  7:00 18:00
193  7:00 18:00
194  7:00 18:00
195  7:00 18:00
196  7:00 18:00
197  7:00 18:00
198  7:00 18:00
199  7:00 18:00
200  7:00 18:00
201  7:00 18:00
STANDTIME_SECTION
2 10
3 5
4 10
5 10
6 5
7 5
8 5
9 10
10 5
11 5
12 10
13 5
14 5
15 10
16 10
17 10
18 5
19 5
20 5
21 5
22 5
23 5
24 5
25 10
26 10
27 5
28 10
29 10
30 10
31 10
32 5
33 5
34 5
35 5
36 5
37 5
38 10
39 5
40 5
41 5
42 10
43 5
44 5
45 5
46 5
47 10
48 10
49 10
50 10
51 10
52 10
53 10
54 5
55 5
56 5
57 5
58 10
59 10
60 5
61 10
62 10
63 10
64 5
65 5
66 5
67 10
68 10
69 5
70 10
71 10
72 5
73 10
74 5
75 5
76 5
77 10
78 10
79 5
80 5
81 10
82 10
83 5
84 5
85 10
86 5
87 5
88 10
89 5
90 10
91 5
92 5
93 10
94 5
95 5
96 10
97 10
98 5
99 10
100 10
101 10
102 10
103 10
104 5
105 5
106 10
107 10
108 10
109 5
110 10
111 5
112 5
113 10
114 10
115 5
116 10
117 10
118 10
119 5
120 5
121 10
122 10
123 10
124 5
125 5
126 10
127 5
128 5
129 10
130 10
131 5
132 10
133 10
134 5
135 10
136 10
137 10
138 10
139 5
140 10
141 10
142 5
143 5
144 10
145 5
146 10
147 10
148 5
149 10
150 5
151 5
152 10
153 10
154 10
155 10
156 5
157 10
158 5
159 5
160 10
161 5
162 5
163 5
164 5
165 10
166 5
167 5
168 10
169 10
170 10
171 10
172 5
173 10
174 10
175 5
176 5
177 10
178 10
179 5
180 5
181 10
182 5
183 10
184 5
185 5
186 10
187 10
188 5
189 5
190 5
191 5
192 10
193 10
194 5
195 10
196 10
197 10
198 5
199 5
200 10
201 10
DEPOT_SECTION
1
-1
EOF
